13
-1 75 24 40 6 86 18 43 15 12 36 4 85
24 -1 57 8 74 55 33 61 13 74 93 78 31
57 97 -1 87 47 19 1 73 4 63 12 23 84
62 73 95 -1 61 10 3 35 9 99 81 56 28
51 27 13 41 -1 18 63 6 11 91 53 56 72
98 66 72 58 36 -1 67 90 63 3 25 26 80
24 68 89 46 55 56 -1 78 25 8 2 65 49
80 41 96 9 55 2 62 -1 6 7 32 95 55
63 42 85 25 36 60 71 36 -1 19 30 93 15
30 79 96 87 58 23 60 13 66 -1 62 93 71
52 5 63 5 43 2 94 74 71 47 -1 19 44
23 73 41 15 57 70 35 88 7 84 27 -1 25
96 92 4 78 65 9 70 96 99 54 53 27 -1
132
0 -> 4 -> 7 -> 5 -> 11 -> 8 -> 12 -> 2 -> 10 -> 1 -> 3 -> 6 -> 9 -> 0 -> 0